sing20200926.12
TTAA 76121 48698
99008 28045 29505 00092 27249 20507 92777 20802 19514
85507 17217 23011 70145 08619 32010 50586 06305 28504
40758 14918 08511 30969 29921 06516 25097 40139 08523
20245 52935 09028 15423 69357 08044 10657 82547 08551
88999
77132 07064 42737=
TTCC 76125 48698
70866 65573 29517 50067 69172 05007
88992 82746 08554
77999=
TTDD 7612/ 48698
11992 82746 22846 76760 33831 77360 44818 74964 55803
66572 66779 62780 77591 71769 88500 69372 99457 63377
21212 11869 11533 22839 11533 33831 10532 44809 08042
55768 08512 66750 02004 77721 30010 88646 27529 99602
27520 11565 27507 22552 31010 33541 33511 44528 33510
55506 02510 66474 07502 77457 35002=
